NAME : XML100_3332_08
DIMENSION : 101
NB_CLUSTERS : 7
CLUSTERING_ALG : KMedoids
CLUSTERING_PARAMS : k(6)
CLUSTERS
1 0
2 2 3 5 17 20 30 32 33 35 38 50 62 69 70 75 77 100
3 1 9 11 22 43 45 49 55 63 80 81 82 83 85 86 90 94 99
4 4 15 18 19 24 25 27 36 39 46 47 48 53 54 57 65 66 71 72 73 74 87 88 89 92 98
5 12 16 23 26 29 37 41 56 64 76 96 97
6 8 10 13 21 31 52 60 68 78 84
7 6 7 14 28 34 40 42 44 51 58 59 61 67 79 91 93 95
EOF